(set-info :smt-lib-version 2.6)
(set-logic UF)
(set-info :source |Benchmarks from the paper: "Extending Sledgehammer with SMT Solvers" by Jasmin Blanchette, Sascha Bohme, and Lawrence C. Paulson, CADE 2011.  Translated to SMT2 by Andrew Reynolds and Morgan Deters.|)
(set-info :category "industrial")
(set-info :status unsat)
(declare-sort S1 0)
(declare-sort S2 0)
(declare-sort S3 0)
(declare-sort S4 0)
(declare-sort S5 0)
(declare-sort S6 0)
(declare-sort S7 0)
(declare-sort S8 0)
(declare-sort S9 0)
(declare-sort S10 0)
(declare-sort S11 0)
(declare-sort S12 0)
(declare-sort S13 0)
(declare-sort S14 0)
(declare-fun f1 () S1)
(declare-fun f2 () S1)
(declare-fun f3 (S2 S3) S3)
(declare-fun f4 (S4 S3) S2)
(declare-fun f5 () S4)
(declare-fun f6 (S5 S6) S3)
(declare-fun f7 (S7 S3) S5)
(declare-fun f8 () S7)
(declare-fun f9 () S4)
(declare-fun f10 () S3)
(declare-fun f11 () S3)
(declare-fun f12 () S3)
(declare-fun f13 () S3)
(declare-fun f14 () S3)
(declare-fun f15 (S8 S3) S6)
(declare-fun f16 () S8)
(declare-fun f17 () S2)
(declare-fun f18 () S2)
(declare-fun f19 () S3)
(declare-fun f20 () S4)
(declare-fun f21 () S2)
(declare-fun f22 () S3)
(declare-fun f23 () S3)
(declare-fun f24 () S5)
(declare-fun f25 () S6)
(declare-fun f26 () S3)
(declare-fun f27 (S9 S3) S1)
(declare-fun f28 () S9)
(declare-fun f29 (S10 S6) S6)
(declare-fun f30 (S11 S6) S10)
(declare-fun f31 () S11)
(declare-fun f32 () S11)
(declare-fun f33 () S11)
(declare-fun f34 () S3)
(declare-fun f35 () S3)
(declare-fun f36 (S12 S3) S9)
(declare-fun f37 () S12)
(declare-fun f38 () S9)
(declare-fun f39 () S6)
(declare-fun f40 () S6)
(declare-fun f41 () S3)
(declare-fun f42 () S3)
(declare-fun f43 () S12)
(declare-fun f44 () S3)
(declare-fun f45 (S13 S6) S1)
(declare-fun f46 (S14 S6) S13)
(declare-fun f47 () S14)
(declare-fun f48 () S4)
(declare-fun f49 () S11)
(assert (not (= f1 f2)))
(assert (let ((?v_0 (f4 f9 f10)) (?v_1 (f4 f9 f12)) (?v_3 (f3 f17 (f3 f18 f19)))) (let ((?v_2 (f15 f16 ?v_3))) (not (= (f3 (f4 f5 (f6 (f7 f8 (f3 (f4 f5 (f3 (f4 f5 (f3 ?v_0 f11)) (f3 ?v_1 f13))) f14)) ?v_2)) (f6 (f7 f8 (f3 (f4 f20 (f3 ?v_0 f13)) (f3 ?v_1 f11))) ?v_2)) (f3 (f4 f9 (f3 (f4 f5 (f3 (f4 f9 (f3 f21 (f3 f17 ?v_3))) f22)) f23)) f14))))))
(assert (let ((?v_2 (f4 f9 f10)) (?v_3 (f4 f9 f12)) (?v_0 (f3 f17 (f3 f18 f19)))) (let ((?v_1 (f15 f16 ?v_0))) (= (f3 (f4 f9 (f6 (f7 f8 (f3 (f4 f5 f23) (f6 f24 f25))) ?v_1)) (f3 (f4 f20 (f3 (f4 f20 (f3 (f4 f9 (f3 (f4 f5 (f3 (f4 f9 (f3 f21 (f3 f17 ?v_0))) f22)) f23)) f14)) (f6 (f7 f8 (f3 (f4 f5 (f3 (f4 f5 (f3 ?v_2 f11)) (f3 ?v_3 f13))) f14)) ?v_1))) (f6 (f7 f8 (f3 (f4 f20 (f3 ?v_2 f13)) (f3 ?v_3 f11))) ?v_1))) f26))))
(assert (not (= (f6 (f7 f8 (f3 (f4 f5 f23) (f6 f24 f25))) (f15 f16 (f3 f17 (f3 f18 f19)))) f26)))
(assert (not (= (f6 (f7 f8 (f3 (f4 f5 f23) (f6 f24 f25))) (f15 f16 (f3 f17 (f3 f18 f19)))) f26)))
(assert (let ((?v_0 (f15 f16 (f3 f17 (f3 f18 f19))))) (= (f3 (f4 f5 (f6 (f7 f8 f11) ?v_0)) (f6 (f7 f8 f13) ?v_0)) (f3 (f4 f9 (f3 (f4 f5 f23) (f6 f24 f25))) f14))))
(assert (let ((?v_2 (f4 f9 f10)) (?v_3 (f4 f9 f12)) (?v_0 (f3 f17 (f3 f18 f19)))) (let ((?v_1 (f15 f16 ?v_0))) (= (f3 (f4 f9 (f6 (f7 f8 (f3 (f4 f5 f23) (f6 f24 f25))) ?v_1)) (f3 (f4 f20 (f3 (f4 f20 (f3 (f4 f9 (f3 (f4 f5 (f3 (f4 f9 (f3 f21 (f3 f17 ?v_0))) f22)) f23)) f14)) (f6 (f7 f8 (f3 (f4 f5 (f3 (f4 f5 (f3 ?v_2 f11)) (f3 ?v_3 f13))) f14)) ?v_1))) (f6 (f7 f8 (f3 (f4 f20 (f3 ?v_2 f13)) (f3 ?v_3 f11))) ?v_1))) f26))))
(assert (= (f27 f28 (f3 (f4 f5 (f3 (f4 f9 (f3 f21 (f3 f17 (f3 f17 (f3 f18 f19))))) f22)) f23)) f1))
(assert (let ((?v_4 (f4 f9 f10)) (?v_6 (f4 f9 f12)) (?v_3 (f15 f16 (f3 f17 (f3 f18 f19)))) (?v_0 (f3 (f4 f5 f23) (f6 f24 f25)))) (let ((?v_5 (f4 f9 ?v_0)) (?v_1 (f4 f9 (f3 (f4 f5 (f3 ?v_4 ?v_0)) f11))) (?v_2 (f4 f9 (f3 (f4 f5 (f3 ?v_6 ?v_0)) f13)))) (= (f3 (f4 f5 (f6 (f7 f8 (f3 (f4 f5 (f3 ?v_1 f11)) (f3 ?v_2 f13))) ?v_3)) (f6 (f7 f8 (f3 (f4 f20 (f3 ?v_1 f13)) (f3 ?v_2 f11))) ?v_3)) (f3 (f4 f5 (f6 (f7 f8 (f3 (f4 f5 (f3 (f4 f5 (f3 ?v_5 (f3 ?v_4 f11))) (f3 ?v_5 (f3 ?v_6 f13)))) (f3 (f4 f5 (f6 (f7 f8 f11) ?v_3)) (f6 (f7 f8 f13) ?v_3)))) ?v_3)) (f6 (f7 f8 (f3 (f4 f20 (f3 ?v_5 (f3 ?v_4 f13))) (f3 ?v_5 (f3 ?v_6 f11)))) ?v_3))))))
(assert (let ((?v_2 (f4 f9 f10)) (?v_3 (f4 f9 f12)) (?v_1 (f15 f16 (f3 f17 (f3 f18 f19)))) (?v_0 (f4 f9 (f3 (f4 f5 f23) (f6 f24 f25))))) (let ((?v_4 (f4 f5 (f3 (f4 f5 (f3 ?v_0 (f3 ?v_2 f11))) (f3 ?v_0 (f3 ?v_3 f13))))) (?v_5 (f6 (f7 f8 (f3 (f4 f20 (f3 ?v_0 (f3 ?v_2 f13))) (f3 ?v_0 (f3 ?v_3 f11)))) ?v_1))) (= (f3 (f4 f5 (f6 (f7 f8 (f3 ?v_4 (f3 (f4 f5 (f6 (f7 f8 f11) ?v_1)) (f6 (f7 f8 f13) ?v_1)))) ?v_1)) ?v_5) (f3 (f4 f5 (f6 (f7 f8 (f3 ?v_4 (f3 ?v_0 f14))) ?v_1)) ?v_5)))))
(assert (let ((?v_3 (f4 f9 f10)) (?v_4 (f4 f9 f12)) (?v_0 (f3 f17 (f3 f18 f19)))) (let ((?v_2 (f15 f16 ?v_0))) (let ((?v_1 (f4 f9 (f6 (f7 f8 (f3 (f4 f5 f23) (f6 f24 f25))) ?v_2)))) (= (f3 ?v_1 (f3 (f4 f9 (f3 (f4 f5 (f3 (f4 f9 (f3 f21 (f3 f17 ?v_0))) f22)) f23)) f14)) (f3 ?v_1 (f3 (f4 f5 (f6 (f7 f8 (f3 (f4 f5 (f3 (f4 f5 (f3 ?v_3 f11)) (f3 ?v_4 f13))) f14)) ?v_2)) (f6 (f7 f8 (f3 (f4 f20 (f3 ?v_3 f13)) (f3 ?v_4 f11))) ?v_2))))))))
(assert (let ((?v_4 (f4 f9 f10)) (?v_5 (f4 f9 f12)) (?v_0 (f3 f17 (f3 f18 f19)))) (let ((?v_1 (f15 f16 ?v_0)) (?v_2 (f3 (f4 f5 f23) (f6 f24 f25)))) (let ((?v_3 (f4 f9 (f6 (f7 f8 ?v_2) ?v_1)))) (= (f3 (f4 f9 (f3 (f4 f9 (f3 (f4 f5 (f3 (f4 f9 (f3 f21 (f3 f17 ?v_0))) f22)) f23)) ?v_2)) (f3 (f4 f5 (f6 (f7 f8 f11) ?v_1)) (f6 (f7 f8 f13) ?v_1))) (f3 (f4 f5 (f3 ?v_3 (f6 (f7 f8 (f3 (f4 f5 (f3 (f4 f5 (f3 ?v_4 f11)) (f3 ?v_5 f13))) f14)) ?v_1))) (f3 ?v_3 (f6 (f7 f8 (f3 (f4 f20 (f3 ?v_4 f13)) (f3 ?v_5 f11))) ?v_1))))))))
(assert (let ((?v_4 (f4 f9 f10)) (?v_5 (f4 f9 f12)) (?v_0 (f3 f17 (f3 f18 f19)))) (let ((?v_1 (f15 f16 ?v_0)) (?v_2 (f3 (f4 f5 f23) (f6 f24 f25)))) (let ((?v_3 (f4 f9 ?v_2))) (= (f3 (f4 f9 (f3 (f4 f9 (f3 (f4 f5 (f3 (f4 f9 (f3 f21 (f3 f17 ?v_0))) f22)) f23)) ?v_2)) (f3 (f4 f5 (f6 (f7 f8 f11) ?v_1)) (f6 (f7 f8 f13) ?v_1))) (f3 (f4 f5 (f6 (f7 f8 (f3 (f4 f5 (f3 (f4 f5 (f3 ?v_3 (f3 ?v_4 f11))) (f3 ?v_3 (f3 ?v_5 f13)))) (f3 ?v_3 f14))) ?v_1)) (f6 (f7 f8 (f3 (f4 f20 (f3 ?v_3 (f3 ?v_4 f13))) (f3 ?v_3 (f3 ?v_5 f11)))) ?v_1)))))))
(assert (=> (forall ((?v0 S3)) (let ((?v_0 (f15 f16 (f3 f17 (f3 f18 f19))))) (=> (= (f3 (f4 f5 (f6 (f7 f8 f11) ?v_0)) (f6 (f7 f8 f13) ?v_0)) (f3 (f4 f9 (f3 (f4 f5 f23) (f6 f24 f25))) ?v0)) false))) false))
(assert (=> (forall ((?v0 S3) (?v1 S3)) (let ((?v_1 (f3 f17 (f3 f18 f19)))) (let ((?v_0 (f15 f16 ?v_1))) (=> (= (f3 (f4 f5 (f6 (f7 f8 ?v0) ?v_0)) (f6 (f7 f8 ?v1) ?v_0)) (f3 (f4 f9 (f3 (f4 f5 (f3 (f4 f9 (f3 f21 (f3 f17 ?v_1))) f22)) f23)) (f3 (f4 f5 f23) (f6 f24 f25)))) false)))) false))
(assert (forall ((?v0 S3) (?v1 S3)) (let ((?v_1 (f3 f17 (f3 f18 f19)))) (let ((?v_0 (f15 f16 ?v_1))) (= (f6 (f7 f8 (f3 (f4 f20 ?v0) ?v1)) ?v_0) (f3 (f4 f5 (f3 (f4 f20 (f6 (f7 f8 ?v0) ?v_0)) (f3 (f4 f9 (f3 (f4 f9 (f3 f21 ?v_1)) ?v0)) ?v1))) (f6 (f7 f8 ?v1) ?v_0)))))))
(assert (forall ((?v0 S3) (?v1 S3)) (let ((?v_3 (f3 f18 f19))) (let ((?v_5 (f15 f16 (f3 f17 ?v_3))) (?v_1 (f3 f18 ?v_3))) (let ((?v_0 (f15 f16 ?v_1)) (?v_2 (f7 f8 ?v0)) (?v_4 (f4 f9 (f3 f21 ?v_1))) (?v_6 (f7 f8 ?v1))) (= (f6 (f7 f8 (f3 (f4 f20 ?v0) ?v1)) ?v_0) (f3 (f4 f20 (f3 (f4 f5 (f3 (f4 f20 (f6 ?v_2 ?v_0)) (f3 (f4 f9 (f3 ?v_4 (f6 ?v_2 ?v_5))) ?v1))) (f3 (f4 f9 (f3 ?v_4 ?v0)) (f6 ?v_6 ?v_5)))) (f6 ?v_6 ?v_0))))))))
(assert (forall ((?v0 S3) (?v1 S3)) (let ((?v_1 (f3 f17 (f3 f18 f19)))) (let ((?v_0 (f15 f16 ?v_1))) (= (f6 (f7 f8 (f3 (f4 f20 ?v0) ?v1)) ?v_0) (f3 (f4 f20 (f3 (f4 f5 (f6 (f7 f8 ?v0) ?v_0)) (f6 (f7 f8 ?v1) ?v_0))) (f3 (f4 f9 (f3 (f4 f9 (f3 f21 ?v_1)) ?v0)) ?v1)))))))
(assert (forall ((?v0 S3) (?v1 S3)) (let ((?v_0 (f15 f16 (f3 f17 (f3 f18 f19))))) (= (f3 (f4 f9 (f3 (f4 f5 ?v0) ?v1)) (f3 (f4 f20 ?v0) ?v1)) (f3 (f4 f20 (f6 (f7 f8 ?v0) ?v_0)) (f6 (f7 f8 ?v1) ?v_0))))))
(assert (forall ((?v0 S3) (?v1 S3)) (let ((?v_1 (f3 f17 (f3 f18 f19)))) (let ((?v_0 (f15 f16 ?v_1))) (= (f6 (f7 f8 (f3 (f4 f5 ?v0) ?v1)) ?v_0) (f3 (f4 f5 (f3 (f4 f5 (f6 (f7 f8 ?v0) ?v_0)) (f3 (f4 f9 (f3 (f4 f9 (f3 f21 ?v_1)) ?v0)) ?v1))) (f6 (f7 f8 ?v1) ?v_0)))))))
(assert (forall ((?v0 S3) (?v1 S3)) (let ((?v_3 (f3 f18 f19))) (let ((?v_5 (f15 f16 (f3 f17 ?v_3))) (?v_1 (f3 f18 ?v_3))) (let ((?v_0 (f15 f16 ?v_1)) (?v_4 (f4 f9 (f3 f21 ?v_1))) (?v_2 (f7 f8 ?v0)) (?v_6 (f7 f8 ?v1))) (= (f6 (f7 f8 (f3 (f4 f5 ?v0) ?v1)) ?v_0) (f3 (f4 f5 (f3 (f4 f5 (f3 (f4 f5 (f6 ?v_2 ?v_0)) (f3 (f4 f9 (f3 ?v_4 (f6 ?v_2 ?v_5))) ?v1))) (f3 (f4 f9 (f3 ?v_4 ?v0)) (f6 ?v_6 ?v_5)))) (f6 ?v_6 ?v_0))))))))
(assert (forall ((?v0 S6) (?v1 S6)) (let ((?v_0 (f15 f16 (f3 f17 (f3 f18 f19))))) (= (f29 (f30 f31 (f29 (f30 f32 ?v0) ?v1)) ?v_0) (f29 (f30 f32 (f29 (f30 f32 (f29 (f30 f31 ?v0) ?v_0)) (f29 (f30 f31 ?v1) ?v_0))) (f29 (f30 f33 (f29 (f30 f33 ?v_0) ?v0)) ?v1))))))
(assert (forall ((?v0 S3) (?v1 S3)) (let ((?v_1 (f3 f17 (f3 f18 f19)))) (let ((?v_0 (f15 f16 ?v_1))) (= (f6 (f7 f8 (f3 (f4 f5 ?v0) ?v1)) ?v_0) (f3 (f4 f5 (f3 (f4 f5 (f6 (f7 f8 ?v0) ?v_0)) (f6 (f7 f8 ?v1) ?v_0))) (f3 (f4 f9 (f3 (f4 f9 (f3 f21 ?v_1)) ?v0)) ?v1)))))))
(assert (forall ((?v0 S3)) (let ((?v_0 (f15 f16 ?v0))) (= (f29 (f30 f31 ?v_0) (f15 f16 (f3 f17 (f3 f18 f19)))) (f29 (f30 f33 ?v_0) ?v_0)))))
(assert (forall ((?v0 S3)) (let ((?v_0 (f3 f21 ?v0))) (= (f6 (f7 f8 ?v_0) (f15 f16 (f3 f17 (f3 f18 f19)))) (f3 (f4 f9 ?v_0) ?v_0)))))
(assert (let ((?v_0 (f3 f17 (f3 f18 f19)))) (= (f3 (f4 f5 (f6 (f7 f8 f34) (f15 f16 ?v_0))) f23) (f3 (f4 f9 (f3 (f4 f5 (f3 (f4 f9 (f3 f21 (f3 f17 ?v_0))) f22)) f23)) f35))))
(assert (forall ((?v0 S3)) (let ((?v_1 (f3 f18 f19)) (?v_0 (f7 f8 ?v0))) (= (f3 (f4 f9 ?v0) (f6 ?v_0 (f15 f16 (f3 f17 ?v_1)))) (f6 ?v_0 (f15 f16 (f3 f18 ?v_1)))))))
(assert (= (f27 (f36 f37 f23) f35) f1))
(assert (=> (forall ((?v0 S3)) (let ((?v_0 (f3 f17 (f3 f18 f19)))) (=> (= (f3 (f4 f5 (f6 (f7 f8 f34) (f15 f16 ?v_0))) f23) (f3 (f4 f9 (f3 (f4 f5 (f3 (f4 f9 (f3 f21 (f3 f17 ?v_0))) f22)) f23)) ?v0)) false))) false))
(assert (= (f27 f38 (f3 (f4 f9 (f3 (f4 f5 (f3 (f4 f9 (f3 f21 (f3 f17 (f3 f17 (f3 f18 f19))))) f22)) f23)) f35)) f1))
(assert (=> (= f35 f23) (exists ((?v0 S3) (?v1 S3)) (let ((?v_1 (f3 f17 (f3 f18 f19)))) (let ((?v_0 (f15 f16 ?v_1))) (= (f3 (f4 f5 (f6 (f7 f8 ?v0) ?v_0)) (f6 (f7 f8 ?v1) ?v_0)) (f3 (f4 f5 (f3 (f4 f9 (f3 f21 (f3 f17 ?v_1))) f22)) f23)))))))
(assert (forall ((?v0 S6)) (= (f29 (f30 f33 (f15 f16 (f3 f17 (f3 f18 f19)))) ?v0) (f29 (f30 f32 ?v0) ?v0))))
(assert (forall ((?v0 S6)) (= (f29 (f30 f33 ?v0) (f15 f16 (f3 f17 (f3 f18 f19)))) (f29 (f30 f32 ?v0) ?v0))))
(assert (= (f27 f28 (f3 f21 (f3 f17 (f3 f18 f19)))) f1))
(assert (forall ((?v0 S3) (?v1 S3)) (= (= (f3 (f4 f5 (f3 (f4 f9 ?v0) ?v0)) (f3 (f4 f9 ?v1) ?v1)) f26) (and (= ?v0 f26) (= ?v1 f26)))))
(assert (= f26 (f3 f21 f19)))
(assert (forall ((?v0 S6) (?v1 S6)) (let ((?v_1 (f15 f16 (f3 f17 (f3 f18 f19)))) (?v_0 (f30 f31 ?v0))) (= (f29 ?v_0 (f29 (f30 f33 ?v_1) ?v1)) (f29 (f30 f31 (f29 ?v_0 ?v1)) ?v_1)))))
(assert (forall ((?v0 S3) (?v1 S6)) (let ((?v_1 (f15 f16 (f3 f17 (f3 f18 f19)))) (?v_0 (f7 f8 ?v0))) (= (f6 ?v_0 (f29 (f30 f33 ?v_1) ?v1)) (f6 (f7 f8 (f6 ?v_0 ?v1)) ?v_1)))))
(assert (forall ((?v0 S3)) (= (= (f6 (f7 f8 ?v0) (f15 f16 (f3 f17 (f3 f18 f19)))) f26) (= ?v0 f26))))
(assert (= (f29 (f30 f31 f39) (f15 f16 (f3 f17 (f3 f18 f19)))) f39))
(assert (= (f6 (f7 f8 f26) (f15 f16 (f3 f17 (f3 f18 f19)))) f26))
(assert (forall ((?v0 S3) (?v1 S3)) (let ((?v_0 (f15 f16 (f3 f17 (f3 f18 f19))))) (= (= (f3 (f4 f5 (f6 (f7 f8 ?v0) ?v_0)) (f6 (f7 f8 ?v1) ?v_0)) f26) (and (= ?v0 f26) (= ?v1 f26))))))
(assert (= f23 (f3 f21 (f3 f18 f19))))
(assert (forall ((?v0 S6)) (= (f29 (f30 f31 ?v0) (f15 f16 (f3 f18 (f3 f18 f19)))) (f29 (f30 f33 (f29 (f30 f33 ?v0) ?v0)) ?v0))))
(assert (forall ((?v0 S3)) (= (f6 (f7 f8 ?v0) (f15 f16 (f3 f18 (f3 f18 f19)))) (f3 (f4 f9 (f3 (f4 f9 ?v0) ?v0)) ?v0))))
(assert (forall ((?v0 S3)) (let ((?v_2 (f3 f17 (f3 f18 f19)))) (let ((?v_0 (f15 f16 ?v_2)) (?v_1 (f7 f8 ?v0))) (= (f6 (f7 f8 (f6 ?v_1 ?v_0)) ?v_0) (f6 ?v_1 (f15 f16 (f3 f17 ?v_2))))))))
(assert (forall ((?v0 S6)) (= (f29 (f30 f31 ?v0) (f15 f16 (f3 f17 (f3 f18 f19)))) (f29 (f30 f33 ?v0) ?v0))))
(assert (forall ((?v0 S3)) (= (f6 (f7 f8 ?v0) (f15 f16 (f3 f17 (f3 f18 f19)))) (f3 (f4 f9 ?v0) ?v0))))
(assert (= (f29 (f30 f31 f40) (f15 f16 (f3 f17 (f3 f18 f19)))) f40))
(assert (= (f6 (f7 f8 f23) (f15 f16 (f3 f17 (f3 f18 f19)))) f23))
(assert (not (= (f27 f38 (f3 (f4 f9 (f3 (f4 f5 (f3 (f4 f9 (f3 f21 (f3 f17 (f3 f17 (f3 f18 f19))))) f22)) f23)) (f3 (f4 f5 f23) (f6 f24 f39)))) f1)))
(assert (let ((?v_0 (f3 (f4 f5 (f3 (f4 f9 (f3 f21 (f3 f17 (f3 f17 (f3 f18 f19))))) f22)) f23)) (?v_1 (f3 (f4 f5 f23) (f6 f24 f25)))) (not (=> (= (f27 (f36 f37 ?v_1) ?v_0) f1) (not (= (f27 f38 (f3 (f4 f9 ?v_0) ?v_1)) f1))))))
(assert (let ((?v_1 (f3 f17 (f3 f18 f19)))) (let ((?v_0 (f15 f16 ?v_1))) (= (f3 (f4 f5 (f6 (f7 f8 f41) ?v_0)) (f6 (f7 f8 f42) ?v_0)) (f3 (f4 f9 (f3 (f4 f5 (f3 (f4 f9 (f3 f21 (f3 f17 ?v_1))) f22)) f23)) (f3 (f4 f5 f23) (f6 f24 f25)))))))
(assert (let ((?v_0 (f15 f16 (f3 f17 (f3 f18 f19))))) (= (f27 (f36 f43 (f3 (f4 f5 f23) (f6 f24 f25))) (f3 (f4 f5 (f6 (f7 f8 f11) ?v_0)) (f6 (f7 f8 f13) ?v_0))) f1)))
(assert (let ((?v_0 (f3 f17 (f3 f18 f19)))) (= (f27 (f36 f43 (f3 (f4 f5 (f3 (f4 f9 (f3 f21 (f3 f17 ?v_0))) f22)) f23)) (f3 (f4 f5 (f6 (f7 f8 f34) (f15 f16 ?v_0))) f23)) f1)))
(assert (= (f27 (f36 f37 f35) (f3 (f4 f5 (f3 (f4 f9 (f3 f21 (f3 f17 (f3 f17 (f3 f18 f19))))) f22)) f23)) f1))
(assert (let ((?v_0 (f6 (f7 f8 f34) (f15 f16 (f3 f17 (f3 f18 f19)))))) (= (f3 (f4 f20 ?v_0) (f3 f21 f44)) (f3 (f4 f5 ?v_0) f23))))
(assert (= (f27 (f36 f37 f26) (f3 (f4 f5 (f3 (f4 f9 (f3 f21 (f3 f17 (f3 f17 (f3 f18 f19))))) f22)) f23)) f1))
(assert (let ((?v_0 (f3 f17 (f3 f18 f19)))) (= (f3 f21 ?v_0) (f6 f24 (f15 f16 ?v_0)))))
(assert (forall ((?v0 S6) (?v1 S6)) (let ((?v_0 (f30 f31 ?v0))) (let ((?v_1 (f29 ?v_0 ?v1))) (= (f29 ?v_0 (f29 (f30 f33 (f15 f16 (f3 f17 (f3 f18 f19)))) ?v1)) (f29 (f30 f33 ?v_1) ?v_1))))))
(assert (forall ((?v0 S3) (?v1 S6)) (let ((?v_0 (f7 f8 ?v0))) (let ((?v_1 (f6 ?v_0 ?v1))) (= (f6 ?v_0 (f29 (f30 f33 (f15 f16 (f3 f17 (f3 f18 f19)))) ?v1)) (f3 (f4 f9 ?v_1) ?v_1))))))
(assert (= (f27 (f36 f37 f26) (f3 (f4 f5 f23) (f6 f24 f25))) f1))
(assert (= (f27 (f36 f37 f14) (f3 (f4 f5 f23) (f6 f24 f25))) f1))
(assert (= (f45 (f46 f47 f39) f25) f1))
(assert (let ((?v_0 (f3 (f4 f5 (f3 (f4 f9 (f3 f21 (f3 f17 (f3 f17 (f3 f18 f19))))) f22)) f23)) (?v_1 (f3 (f4 f5 f23) (f6 f24 f25)))) (and (= (f27 (f36 f37 ?v_1) ?v_0) f1) (= (f27 f38 (f3 (f4 f9 ?v_0) ?v_1)) f1))))
(assert (let ((?v_0 (f15 f16 (f3 f17 (f3 f18 f19)))) (?v_1 (f4 f9 f41)) (?v_2 (f4 f9 f42))) (= (f3 (f4 f9 (f3 (f4 f5 (f6 (f7 f8 f41) ?v_0)) (f6 (f7 f8 f42) ?v_0))) (f3 (f4 f5 (f6 (f7 f8 f11) ?v_0)) (f6 (f7 f8 f13) ?v_0))) (f3 (f4 f5 (f6 (f7 f8 (f3 (f4 f5 (f3 ?v_1 f11)) (f3 ?v_2 f13))) ?v_0)) (f6 (f7 f8 (f3 (f4 f20 (f3 ?v_1 f13)) (f3 ?v_2 f11))) ?v_0)))))
(assert (let ((?v_0 (f3 f17 (f3 f18 f19)))) (= (f27 (f36 f43 (f3 (f4 f5 (f3 (f4 f9 (f3 f21 (f3 f17 ?v_0))) f22)) f23)) (f3 (f4 f20 (f6 (f7 f8 f34) (f15 f16 ?v_0))) (f3 f21 f44))) f1)))
(assert (let ((?v_0 (f3 f17 (f3 f18 f19)))) (let ((?v_1 (f15 f16 ?v_0))) (let ((?v_2 (f3 (f4 f5 (f6 (f7 f8 f11) ?v_1)) (f6 (f7 f8 f13) ?v_1)))) (= (f3 (f4 f9 (f3 (f4 f9 (f3 (f4 f5 (f3 (f4 f9 (f3 f21 (f3 f17 ?v_0))) f22)) f23)) (f3 (f4 f5 f23) (f6 f24 f25)))) ?v_2) (f3 (f4 f9 (f3 (f4 f5 (f6 (f7 f8 f41) ?v_1)) (f6 (f7 f8 f42) ?v_1))) ?v_2))))))
(assert (let ((?v_2 (f15 f16 (f3 f17 (f3 f18 f19)))) (?v_3 (f3 (f4 f5 f23) (f6 f24 f25)))) (let ((?v_4 (f4 f9 (f3 (f4 f5 (f3 (f4 f9 f10) ?v_3)) f11))) (?v_5 (f4 f9 (f3 (f4 f5 (f3 (f4 f9 f12) ?v_3)) f13))) (?v_0 (f4 f9 f41)) (?v_1 (f4 f9 f42))) (= (f3 (f4 f5 (f6 (f7 f8 (f3 (f4 f5 (f3 ?v_0 f11)) (f3 ?v_1 f13))) ?v_2)) (f6 (f7 f8 (f3 (f4 f20 (f3 ?v_0 f13)) (f3 ?v_1 f11))) ?v_2)) (f3 (f4 f5 (f6 (f7 f8 (f3 (f4 f5 (f3 ?v_4 f11)) (f3 ?v_5 f13))) ?v_2)) (f6 (f7 f8 (f3 (f4 f20 (f3 ?v_4 f13)) (f3 ?v_5 f11))) ?v_2))))))
(assert (= (f3 (f4 f48 (f3 f21 f44)) (f3 (f4 f5 (f3 (f4 f9 (f3 f21 (f3 f17 (f3 f17 (f3 f18 f19))))) f22)) f23)) f23))
(assert (forall ((?v0 S6) (?v1 S6)) (let ((?v_0 (f30 f31 ?v0))) (= (f29 ?v_0 ?v1) (ite (= ?v1 f39) f40 (f29 (f30 f33 ?v0) (f29 ?v_0 (f29 (f30 f49 ?v1) f40))))))))
(assert (forall ((?v0 S6) (?v1 S6)) (= (f29 (f30 f33 ?v0) ?v1) (ite (= ?v0 f39) f39 (f29 (f30 f32 ?v1) (f29 (f30 f33 (f29 (f30 f49 ?v0) f40)) ?v1))))))
(assert (forall ((?v0 S6)) (= (f29 (f30 f31 ?v0) f40) ?v0)))
(assert (forall ((?v0 S3)) (= (f6 (f7 f8 ?v0) f40) ?v0)))
(assert (forall ((?v0 S6)) (= (f29 (f30 f31 ?v0) f39) f40)))
(assert (forall ((?v0 S3)) (= (f6 (f7 f8 ?v0) f39) f23)))
(assert (= f23 (f6 f24 f40)))
(assert (= f26 (f6 f24 f39)))
(assert (forall ((?v0 S3) (?v1 S3)) (= (f29 (f30 f33 (f15 f16 ?v0)) (f15 f16 ?v1)) (ite (= (f27 (f36 f37 ?v0) f19) f1) f39 (f15 f16 (f3 (f4 f9 ?v0) ?v1))))))
(assert (forall ((?v0 S3) (?v1 S3) (?v2 S6)) (= (f29 (f30 f33 (f15 f16 ?v0)) (f29 (f30 f33 (f15 f16 ?v1)) ?v2)) (ite (= (f27 (f36 f37 ?v0) f19) f1) f39 (f29 (f30 f33 (f15 f16 (f3 (f4 f9 ?v0) ?v1))) ?v2)))))
(assert (not (= (f3 f21 f19) (f3 f21 f44))))
(assert (forall ((?v0 S3) (?v1 S3)) (let ((?v_0 (f36 f37 f26))) (=> (= (f27 ?v_0 ?v0) f1) (=> (= (f27 ?v_0 (f3 (f4 f9 ?v0) ?v1)) f1) (= (f27 ?v_0 ?v1) f1))))))
(assert (forall ((?v0 S3) (?v1 S3) (?v2 S6)) (let ((?v_0 (f36 f43 ?v0))) (=> (= (f27 f28 ?v0) f1) (=> (= (f27 ?v_0 (f6 (f7 f8 ?v1) ?v2)) f1) (= (f27 ?v_0 ?v1) f1))))))
(assert (= f39 (f15 f16 f19)))
(assert (= (f15 f16 f19) f39))
(assert (forall ((?v0 S3) (?v1 S3)) (=> (= (f27 f38 ?v0) f1) (=> (= (f27 f38 ?v1) f1) (= (f27 f38 (f3 (f4 f9 ?v0) ?v1)) f1)))))
(assert (forall ((?v0 S3) (?v1 S3)) (not (= (f27 (f36 f37 (f3 (f4 f5 (f3 (f4 f9 ?v0) ?v0)) (f3 (f4 f9 ?v1) ?v1))) f26) f1))))
(assert (forall ((?v0 S3) (?v1 S3)) (= (= (f27 (f36 f37 f26) (f3 (f4 f5 (f3 (f4 f9 ?v0) ?v0)) (f3 (f4 f9 ?v1) ?v1))) f1) (or (not (= ?v0 f26)) (not (= ?v1 f26))))))
(assert (forall ((?v0 S3) (?v1 S3) (?v2 S6) (?v3 S3)) (let ((?v_0 (f36 f43 (f6 (f7 f8 ?v0) ?v2)))) (=> (= (f27 f28 ?v0) f1) (=> (not (= (f27 (f36 f43 ?v0) ?v1) f1)) (=> (= (f27 ?v_0 (f3 (f4 f9 ?v1) ?v3)) f1) (= (f27 ?v_0 ?v3) f1)))))))
(assert (forall ((?v0 S3) (?v1 S3) (?v2 S6) (?v3 S3)) (let ((?v_0 (f36 f43 (f6 (f7 f8 ?v0) ?v2)))) (=> (= (f27 f28 ?v0) f1) (=> (not (= (f27 (f36 f43 ?v0) ?v1) f1)) (=> (= (f27 ?v_0 (f3 (f4 f9 ?v3) ?v1)) f1) (= (f27 ?v_0 ?v3) f1)))))))
(assert (forall ((?v0 S3) (?v1 S3)) (let ((?v_1 (f15 f16 ?v0)) (?v_0 (f15 f16 ?v1))) (= (f29 (f30 f32 ?v_1) ?v_0) (ite (= (f27 (f36 f37 ?v0) f19) f1) ?v_0 (ite (= (f27 (f36 f37 ?v1) f19) f1) ?v_1 (f15 f16 (f3 (f4 f5 ?v0) ?v1))))))))
(assert (= f40 (f15 f16 (f3 f18 f19))))
(assert (= (f15 f16 (f3 f18 f19)) f40))
(assert (forall ((?v0 S6) (?v1 S6)) (= (f29 (f30 f33 ?v0) ?v1) (f29 (f30 f33 ?v1) ?v0))))
(assert (forall ((?v0 S3) (?v1 S3)) (= (f3 (f4 f9 ?v0) ?v1) (f3 (f4 f9 ?v1) ?v0))))
(assert (forall ((?v0 S6) (?v1 S6) (?v2 S6)) (let ((?v_1 (f30 f33 ?v0)) (?v_0 (f30 f33 ?v1))) (= (f29 ?v_1 (f29 ?v_0 ?v2)) (f29 ?v_0 (f29 ?v_1 ?v2))))))
(assert (forall ((?v0 S3) (?v1 S3) (?v2 S3)) (let ((?v_1 (f4 f9 ?v0)) (?v_0 (f4 f9 ?v1))) (= (f3 ?v_1 (f3 ?v_0 ?v2)) (f3 ?v_0 (f3 ?v_1 ?v2))))))
(assert (forall ((?v0 S6) (?v1 S6) (?v2 S6)) (let ((?v_0 (f30 f33 ?v0))) (= (f29 ?v_0 (f29 (f30 f33 ?v1) ?v2)) (f29 (f30 f33 (f29 ?v_0 ?v1)) ?v2)))))
(assert (forall ((?v0 S3) (?v1 S3) (?v2 S3)) (let ((?v_0 (f4 f9 ?v0))) (= (f3 ?v_0 (f3 (f4 f9 ?v1) ?v2)) (f3 (f4 f9 (f3 ?v_0 ?v1)) ?v2)))))
(assert (forall ((?v0 S6) (?v1 S6) (?v2 S6)) (let ((?v_0 (f30 f33 ?v0))) (= (f29 (f30 f33 (f29 ?v_0 ?v1)) ?v2) (f29 ?v_0 (f29 (f30 f33 ?v1) ?v2))))))
(assert (forall ((?v0 S3) (?v1 S3) (?v2 S3)) (let ((?v_0 (f4 f9 ?v0))) (= (f3 (f4 f9 (f3 ?v_0 ?v1)) ?v2) (f3 ?v_0 (f3 (f4 f9 ?v1) ?v2))))))
(assert (forall ((?v0 S6) (?v1 S6) (?v2 S6)) (let ((?v_0 (f30 f33 ?v0))) (= (f29 (f30 f33 (f29 ?v_0 ?v1)) ?v2) (f29 (f30 f33 (f29 ?v_0 ?v2)) ?v1)))))
(assert (forall ((?v0 S3) (?v1 S3) (?v2 S3)) (let ((?v_0 (f4 f9 ?v0))) (= (f3 (f4 f9 (f3 ?v_0 ?v1)) ?v2) (f3 (f4 f9 (f3 ?v_0 ?v2)) ?v1)))))
(assert (forall ((?v0 S6) (?v1 S6) (?v2 S6) (?v3 S6)) (let ((?v_0 (f30 f33 ?v0)) (?v_1 (f29 (f30 f33 ?v2) ?v3))) (= (f29 (f30 f33 (f29 ?v_0 ?v1)) ?v_1) (f29 ?v_0 (f29 (f30 f33 ?v1) ?v_1))))))
(assert (forall ((?v0 S3) (?v1 S3) (?v2 S3) (?v3 S3)) (let ((?v_0 (f4 f9 ?v0)) (?v_1 (f3 (f4 f9 ?v2) ?v3))) (= (f3 (f4 f9 (f3 ?v_0 ?v1)) ?v_1) (f3 ?v_0 (f3 (f4 f9 ?v1) ?v_1))))))
(assert (forall ((?v0 S6) (?v1 S6) (?v2 S6) (?v3 S6)) (let ((?v_1 (f30 f33 (f29 (f30 f33 ?v0) ?v1))) (?v_0 (f30 f33 ?v2))) (= (f29 ?v_1 (f29 ?v_0 ?v3)) (f29 ?v_0 (f29 ?v_1 ?v3))))))
(assert (forall ((?v0 S3) (?v1 S3) (?v2 S3) (?v3 S3)) (let ((?v_1 (f4 f9 (f3 (f4 f9 ?v0) ?v1))) (?v_0 (f4 f9 ?v2))) (= (f3 ?v_1 (f3 ?v_0 ?v3)) (f3 ?v_0 (f3 ?v_1 ?v3))))))
(assert (forall ((?v0 S6) (?v1 S6) (?v2 S6) (?v3 S6)) (let ((?v_0 (f30 f33 ?v0))) (= (f29 (f30 f33 (f29 ?v_0 ?v1)) (f29 (f30 f33 ?v2) ?v3)) (f29 (f30 f33 (f29 ?v_0 ?v2)) (f29 (f30 f33 ?v1) ?v3))))))
(assert (forall ((?v0 S3) (?v1 S3) (?v2 S3) (?v3 S3)) (let ((?v_0 (f4 f9 ?v0))) (= (f3 (f4 f9 (f3 ?v_0 ?v1)) (f3 (f4 f9 ?v2) ?v3)) (f3 (f4 f9 (f3 ?v_0 ?v2)) (f3 (f4 f9 ?v1) ?v3))))))
(assert (forall ((?v0 S6) (?v1 S6)) (= (f29 (f30 f32 ?v0) ?v1) (f29 (f30 f32 ?v1) ?v0))))
(assert (forall ((?v0 S3) (?v1 S3)) (= (f3 (f4 f5 ?v0) ?v1) (f3 (f4 f5 ?v1) ?v0))))
(assert (forall ((?v0 S6) (?v1 S6) (?v2 S6)) (let ((?v_1 (f30 f32 ?v0)) (?v_0 (f30 f32 ?v1))) (= (f29 ?v_1 (f29 ?v_0 ?v2)) (f29 ?v_0 (f29 ?v_1 ?v2))))))
(assert (forall ((?v0 S3) (?v1 S3) (?v2 S3)) (let ((?v_1 (f4 f5 ?v0)) (?v_0 (f4 f5 ?v1))) (= (f3 ?v_1 (f3 ?v_0 ?v2)) (f3 ?v_0 (f3 ?v_1 ?v2))))))
(assert (forall ((?v0 S6) (?v1 S6) (?v2 S6)) (let ((?v_0 (f30 f32 ?v0))) (= (f29 ?v_0 (f29 (f30 f32 ?v1) ?v2)) (f29 (f30 f32 (f29 ?v_0 ?v1)) ?v2)))))
(assert (forall ((?v0 S3) (?v1 S3) (?v2 S3)) (let ((?v_0 (f4 f5 ?v0))) (= (f3 ?v_0 (f3 (f4 f5 ?v1) ?v2)) (f3 (f4 f5 (f3 ?v_0 ?v1)) ?v2)))))
(assert (forall ((?v0 S6) (?v1 S6) (?v2 S6)) (let ((?v_0 (f30 f32 ?v0))) (= (f29 (f30 f32 (f29 ?v_0 ?v1)) ?v2) (f29 ?v_0 (f29 (f30 f32 ?v1) ?v2))))))
(assert (forall ((?v0 S3) (?v1 S3) (?v2 S3)) (let ((?v_0 (f4 f5 ?v0))) (= (f3 (f4 f5 (f3 ?v_0 ?v1)) ?v2) (f3 ?v_0 (f3 (f4 f5 ?v1) ?v2))))))
(assert (forall ((?v0 S6) (?v1 S6) (?v2 S6)) (let ((?v_0 (f30 f32 ?v0))) (= (f29 (f30 f32 (f29 ?v_0 ?v1)) ?v2) (f29 (f30 f32 (f29 ?v_0 ?v2)) ?v1)))))
(assert (forall ((?v0 S3) (?v1 S3) (?v2 S3)) (let ((?v_0 (f4 f5 ?v0))) (= (f3 (f4 f5 (f3 ?v_0 ?v1)) ?v2) (f3 (f4 f5 (f3 ?v_0 ?v2)) ?v1)))))
(assert (forall ((?v0 S6) (?v1 S6) (?v2 S6) (?v3 S6)) (let ((?v_0 (f30 f32 ?v0))) (= (f29 (f30 f32 (f29 ?v_0 ?v1)) (f29 (f30 f32 ?v2) ?v3)) (f29 (f30 f32 (f29 ?v_0 ?v2)) (f29 (f30 f32 ?v1) ?v3))))))
(assert (forall ((?v0 S3) (?v1 S3) (?v2 S3) (?v3 S3)) (let ((?v_0 (f4 f5 ?v0))) (= (f3 (f4 f5 (f3 ?v_0 ?v1)) (f3 (f4 f5 ?v2) ?v3)) (f3 (f4 f5 (f3 ?v_0 ?v2)) (f3 (f4 f5 ?v1) ?v3))))))
(assert (forall ((?v0 S6) (?v1 S6) (?v2 S6)) (let ((?v_0 (f30 f31 ?v0))) (= (f29 (f30 f31 (f29 ?v_0 ?v1)) ?v2) (f29 ?v_0 (f29 (f30 f33 ?v1) ?v2))))))
(assert (forall ((?v0 S3) (?v1 S6) (?v2 S6)) (let ((?v_0 (f7 f8 ?v0))) (= (f6 (f7 f8 (f6 ?v_0 ?v1)) ?v2) (f6 ?v_0 (f29 (f30 f33 ?v1) ?v2))))))
(assert (forall ((?v0 S1) (?v1 S6) (?v2 S6)) (let ((?v_0 (= ?v0 f1))) (= (ite ?v_0 (f6 f24 ?v1) (f6 f24 ?v2)) (f6 f24 (ite ?v_0 ?v1 ?v2))))))
(assert (forall ((?v0 S6) (?v1 S6)) (= (= (f6 f24 ?v0) (f6 f24 ?v1)) (= ?v0 ?v1))))
(assert (= (f29 (f30 f32 f40) f40) (f15 f16 (f3 f17 (f3 f18 f19)))))
(assert (forall ((?v0 S3)) (not (= (f27 (f36 f37 (f6 (f7 f8 ?v0) (f15 f16 (f3 f17 (f3 f18 f19))))) f26) f1))))
(assert (forall ((?v0 S3)) (= (= (f27 (f36 f37 f26) (f6 (f7 f8 ?v0) (f15 f16 (f3 f17 (f3 f18 f19))))) f1) (not (= ?v0 f26)))))
(assert (forall ((?v0 S6)) (= (f29 (f30 f33 f39) ?v0) f39)))
(assert (forall ((?v0 S3)) (= (f3 (f4 f9 f26) ?v0) f26)))
(assert (forall ((?v0 S6)) (= (f29 (f30 f33 ?v0) f39) f39)))
(assert (forall ((?v0 S3)) (= (f3 (f4 f9 ?v0) f26) f26)))
(assert (forall ((?v0 S6)) (= (f29 (f30 f32 f39) ?v0) ?v0)))
(assert (forall ((?v0 S3)) (= (f3 (f4 f5 f26) ?v0) ?v0)))
(assert (forall ((?v0 S6)) (= (f29 (f30 f32 ?v0) f39) ?v0)))
(assert (forall ((?v0 S3)) (= (f3 (f4 f5 ?v0) f26) ?v0)))
(assert (forall ((?v0 S6) (?v1 S6)) (= (= ?v0 (f29 (f30 f32 ?v0) ?v1)) (= ?v1 f39))))
(assert (forall ((?v0 S3) (?v1 S3)) (= (= ?v0 (f3 (f4 f5 ?v0) ?v1)) (= ?v1 f26))))
(assert (forall ((?v0 S6) (?v1 S6) (?v2 S6)) (let ((?v_0 (f30 f33 ?v0))) (= (f29 ?v_0 (f29 (f30 f32 ?v1) ?v2)) (f29 (f30 f32 (f29 ?v_0 ?v1)) (f29 ?v_0 ?v2))))))
(assert (forall ((?v0 S3) (?v1 S3) (?v2 S3)) (let ((?v_0 (f4 f9 ?v0))) (= (f3 ?v_0 (f3 (f4 f5 ?v1) ?v2)) (f3 (f4 f5 (f3 ?v_0 ?v1)) (f3 ?v_0 ?v2))))))
(assert (forall ((?v0 S6) (?v1 S6) (?v2 S6) (?v3 S6)) (let ((?v_0 (f30 f33 ?v0)) (?v_1 (f30 f33 ?v1))) (= (and (not (= ?v0 ?v1)) (not (= ?v2 ?v3))) (not (= (f29 (f30 f32 (f29 ?v_0 ?v2)) (f29 ?v_1 ?v3)) (f29 (f30 f32 (f29 ?v_0 ?v3)) (f29 ?v_1 ?v2))))))))
(assert (forall ((?v0 S3) (?v1 S3) (?v2 S3) (?v3 S3)) (let ((?v_0 (f4 f9 ?v0)) (?v_1 (f4 f9 ?v1))) (= (and (not (= ?v0 ?v1)) (not (= ?v2 ?v3))) (not (= (f3 (f4 f5 (f3 ?v_0 ?v2)) (f3 ?v_1 ?v3)) (f3 (f4 f5 (f3 ?v_0 ?v3)) (f3 ?v_1 ?v2))))))))
(assert (forall ((?v0 S6) (?v1 S6) (?v2 S6)) (= (f29 (f30 f33 (f29 (f30 f32 ?v0) ?v1)) ?v2) (f29 (f30 f32 (f29 (f30 f33 ?v0) ?v2)) (f29 (f30 f33 ?v1) ?v2)))))
(assert (forall ((?v0 S3) (?v1 S3) (?v2 S3)) (= (f3 (f4 f9 (f3 (f4 f5 ?v0) ?v1)) ?v2) (f3 (f4 f5 (f3 (f4 f9 ?v0) ?v2)) (f3 (f4 f9 ?v1) ?v2)))))
(assert (forall ((?v0 S6) (?v1 S6) (?v2 S6)) (= (f29 (f30 f32 (f29 (f30 f33 ?v0) ?v1)) (f29 (f30 f33 ?v2) ?v1)) (f29 (f30 f33 (f29 (f30 f32 ?v0) ?v2)) ?v1))))
(assert (forall ((?v0 S3) (?v1 S3) (?v2 S3)) (= (f3 (f4 f5 (f3 (f4 f9 ?v0) ?v1)) (f3 (f4 f9 ?v2) ?v1)) (f3 (f4 f9 (f3 (f4 f5 ?v0) ?v2)) ?v1))))
(assert (forall ((?v0 S6) (?v1 S6) (?v2 S6) (?v3 S6)) (let ((?v_0 (f30 f33 ?v0)) (?v_1 (f30 f33 ?v2))) (= (= (f29 (f30 f32 (f29 ?v_0 ?v1)) (f29 ?v_1 ?v3)) (f29 (f30 f32 (f29 ?v_0 ?v3)) (f29 ?v_1 ?v1))) (or (= ?v0 ?v2) (= ?v1 ?v3))))))
(assert (forall ((?v0 S3) (?v1 S3) (?v2 S3) (?v3 S3)) (let ((?v_0 (f4 f9 ?v0)) (?v_1 (f4 f9 ?v2))) (= (= (f3 (f4 f5 (f3 ?v_0 ?v1)) (f3 ?v_1 ?v3)) (f3 (f4 f5 (f3 ?v_0 ?v3)) (f3 ?v_1 ?v1))) (or (= ?v0 ?v2) (= ?v1 ?v3))))))
(assert (forall ((?v0 S6)) (= (f29 (f30 f33 f40) ?v0) ?v0)))
(assert (forall ((?v0 S3)) (= (f3 (f4 f9 f23) ?v0) ?v0)))
(assert (forall ((?v0 S6)) (= (f29 (f30 f33 ?v0) f40) ?v0)))
(assert (forall ((?v0 S3)) (= (f3 (f4 f9 ?v0) f23) ?v0)))
(assert (forall ((?v0 S6) (?v1 S6) (?v2 S6)) (= (f29 (f30 f31 (f29 (f30 f33 ?v0) ?v1)) ?v2) (f29 (f30 f33 (f29 (f30 f31 ?v0) ?v2)) (f29 (f30 f31 ?v1) ?v2)))))
(assert (forall ((?v0 S3) (?v1 S3) (?v2 S6)) (= (f6 (f7 f8 (f3 (f4 f9 ?v0) ?v1)) ?v2) (f3 (f4 f9 (f6 (f7 f8 ?v0) ?v2)) (f6 (f7 f8 ?v1) ?v2)))))
(assert (forall ((?v0 S6) (?v1 S6) (?v2 S6)) (let ((?v_0 (f30 f31 ?v0))) (= (f29 (f30 f33 (f29 ?v_0 ?v1)) (f29 ?v_0 ?v2)) (f29 ?v_0 (f29 (f30 f32 ?v1) ?v2))))))
(assert (forall ((?v0 S3) (?v1 S6) (?v2 S6)) (let ((?v_0 (f7 f8 ?v0))) (= (f3 (f4 f9 (f6 ?v_0 ?v1)) (f6 ?v_0 ?v2)) (f6 ?v_0 (f29 (f30 f32 ?v1) ?v2))))))
(assert (forall ((?v0 S6)) (= (f6 (f7 f8 (f3 f21 f44)) (f29 (f30 f33 (f15 f16 (f3 f17 (f3 f18 f19)))) ?v0)) f23)))
(assert (forall ((?v0 S3) (?v1 S3)) (let ((?v_0 (f15 f16 (f3 f17 (f3 f18 f19))))) (not (= (f27 (f36 f37 (f3 (f4 f5 (f6 (f7 f8 ?v0) ?v_0)) (f6 (f7 f8 ?v1) ?v_0))) f26) f1)))))
(assert (forall ((?v0 S3) (?v1 S3)) (let ((?v_0 (f15 f16 (f3 f17 (f3 f18 f19))))) (= (= (f27 (f36 f37 f26) (f3 (f4 f5 (f6 (f7 f8 ?v0) ?v_0)) (f6 (f7 f8 ?v1) ?v_0))) f1) (or (not (= ?v0 f26)) (not (= ?v1 f26)))))))
(assert (forall ((?v0 S6) (?v1 S6)) (= (f3 (f4 f9 (f6 f24 ?v0)) (f6 f24 ?v1)) (f6 f24 (f29 (f30 f33 ?v0) ?v1)))))
(assert (forall ((?v0 S6) (?v1 S6)) (= (f3 (f4 f5 (f6 f24 ?v0)) (f6 f24 ?v1)) (f6 f24 (f29 (f30 f32 ?v0) ?v1)))))
(assert (forall ((?v0 S6) (?v1 S6)) (= (f6 (f7 f8 (f6 f24 ?v0)) ?v1) (f6 f24 (f29 (f30 f31 ?v0) ?v1)))))
(assert (forall ((?v0 S6) (?v1 S6) (?v2 S6) (?v3 S6) (?v4 S6)) (let ((?v_0 (f30 f33 ?v0))) (=> (not (= ?v0 f39)) (=> (and (= ?v1 ?v2) (not (= ?v3 ?v4))) (not (= (f29 (f30 f32 ?v1) (f29 ?v_0 ?v3)) (f29 (f30 f32 ?v2) (f29 ?v_0 ?v4)))))))))
(assert (forall ((?v0 S3) (?v1 S3) (?v2 S3) (?v3 S3) (?v4 S3)) (let ((?v_0 (f4 f9 ?v0))) (=> (not (= ?v0 f26)) (=> (and (= ?v1 ?v2) (not (= ?v3 ?v4))) (not (= (f3 (f4 f5 ?v1) (f3 ?v_0 ?v3)) (f3 (f4 f5 ?v2) (f3 ?v_0 ?v4)))))))))
(assert (forall ((?v0 S6)) (= (f29 (f30 f32 ?v0) ?v0) (f29 (f30 f33 (f29 (f30 f32 f40) f40)) ?v0))))
(assert (forall ((?v0 S3)) (= (f3 (f4 f5 ?v0) ?v0) (f3 (f4 f9 (f3 (f4 f5 f23) f23)) ?v0))))
(assert (forall ((?v0 S6) (?v1 S6)) (= (f29 (f30 f32 ?v0) (f29 (f30 f33 ?v1) ?v0)) (f29 (f30 f33 (f29 (f30 f32 ?v1) f40)) ?v0))))
(assert (forall ((?v0 S3) (?v1 S3)) (= (f3 (f4 f5 ?v0) (f3 (f4 f9 ?v1) ?v0)) (f3 (f4 f9 (f3 (f4 f5 ?v1) f23)) ?v0))))
(assert (forall ((?v0 S6) (?v1 S6)) (= (f29 (f30 f32 (f29 (f30 f33 ?v0) ?v1)) ?v1) (f29 (f30 f33 (f29 (f30 f32 ?v0) f40)) ?v1))))
(assert (forall ((?v0 S3) (?v1 S3)) (= (f3 (f4 f5 (f3 (f4 f9 ?v0) ?v1)) ?v1) (f3 (f4 f9 (f3 (f4 f5 ?v0) f23)) ?v1))))
(assert (let ((?v_0 (f3 f18 (f3 f18 f19)))) (= (f3 f21 ?v_0) (f6 f24 (f15 f16 ?v_0)))))
(assert (forall ((?v0 S6)) (= (f29 (f30 f33 ?v0) ?v0) (f29 (f30 f31 ?v0) (f15 f16 (f3 f17 (f3 f18 f19)))))))
(assert (forall ((?v0 S3)) (= (f3 (f4 f9 ?v0) ?v0) (f6 (f7 f8 ?v0) (f15 f16 (f3 f17 (f3 f18 f19)))))))
(check-sat)
(exit)
